r = [
0,62,61,57,3,67,95,51,59,88,24,0
];
p = [
0,5,25,27,14,11,30,13,29,27,14,0
];
e = [
0,15,10,10,12,11,14,9,2,6,18,0
];
d = [
0,227,184,202,94,163,254,71,156,126,72,281
];
d_bar = [
0,232,207,226,107,173,281,83,182,150,85,281
];
w = [
0,3,0.434782609,0.416666667,0.923076923,1.1,0.518518519,0.75,0.076923077,0.25,1.384615385,0
];
